Quantum-Cryptanalysis/instances/samples/hf_n32/hf_n32_cnf09.sol
c DPLL-like Solver for max-min SAT
f file hf_n32_cnf09.cnf
p cnf 32 220
s max  220 -30 -8 -7 -5 -6 -18 -12 9 11 -27 10 -15 14 32 13 -16 -28 -26 -24 4 2 -3 1 -25 -31 -29 -20 -22 -17 -19 -23 -21
s min  192 -10 27 12 9 -16 15 -13 -24 17 11 -19 14 28 26 8 32 -30 20 -25 22 -21 -23 -31 -29 18 1 -2 3 4 -5 6 7